Set parameter TSPort to value 51199
Set parameter TokenServer to value "open-license1.lanl.gov"
Set parameter TimeLimit to value 4096
Set parameter Threads to value 1
Gurobi Optimizer version 10.0.3 build v10.0.3rc0 (linux64)

CPU model: Intel(R) Xeon(R) CPU E5-2695 v4 @ 2.10GHz, instruction set [SSE2|AVX|AVX2]
Thread count: 36 physical cores, 72 logical processors, using up to 1 threads

Optimize a model with 0 rows, 1940 columns and 0 nonzeros
Model fingerprint: 0xaeeaf6ff
Model has 8688 quadratic objective terms
Variable types: 0 continuous, 1940 integer (1940 binary)
Coefficient statistics:
  Matrix range     [0e+00, 0e+00]
  Objective range  [2e+00, 3e+01]
  QObjective range [8e+00, 8e+00]
  Bounds range     [1e+00, 1e+00]
  RHS range        [0e+00, 0e+00]
Found heuristic solution: objective 0.0000000
Found heuristic solution: objective -3244.000000
Found heuristic solution: objective -11664.00000
Found heuristic solution: objective -11694.00000
Presolve removed 0 rows and 1 columns
Presolve time: 4.57s
Presolved: 8687 rows, 10626 columns, 26061 nonzeros
Variable types: 0 continuous, 10626 integer (10626 binary)

Root simplex log...

Iteration    Objective       Primal Inf.    Dual Inf.      Time
       0   -1.7314000e+04   3.319000e+03   0.000000e+00      7s
    2762   -1.6150000e+04   0.000000e+00   0.000000e+00      7s

Root relaxation: objective -1.615000e+04, 2762 iterations, 0.61 seconds (0.02 work units)
Total elapsed time = 7.29s

    Nodes    |    Current Node    |     Objective Bounds      |     Work
 Expl Unexpl |  Obj  Depth IntInf | Incumbent    BestBd   Gap | It/Node Time

     0     0 -16150.000    0 1939 -11694.000 -16150.000  38.1%     -    8s
     0     0 -15043.000    0 2494 -11694.000 -15043.000  28.6%     -   15s
     0     0 -14942.000    0 2550 -11694.000 -14942.000  27.8%     -   17s
     0     0 -14941.000    0 2550 -11694.000 -14941.000  27.8%     -   18s
     0     0 -14654.000    0 2748 -11694.000 -14654.000  25.3%     -   28s
     0     0 -14654.000    0 2718 -11694.000 -14654.000  25.3%     -   33s
     0     2 -14654.000    0 2715 -11694.000 -14654.000  25.3%     -   42s
    11    13 -14601.500    6 2778 -11694.000 -14642.000  25.2%   259   45s
    29    31 -14520.500   15 2855 -11694.000 -14642.000  25.2%   173   50s
    45    47 -14440.500   23 2916 -11694.000 -14642.000  25.2%   163   55s
    59    61 -14381.500   30 2966 -11694.000 -14642.000  25.2%   155   60s
    79    81 -14302.500   40 3042 -11694.000 -14642.000  25.2%   138   65s
   102   104 -14220.500   51 3112 -11694.000 -14642.000  25.2%   130   70s
   121   123 -14133.500   61 3117 -11694.000 -14642.000  25.2%   130   75s
   143   145 -14040.500   72 3135 -11694.000 -14642.000  25.2%   123   80s
   163   165 -13953.500   82 3192 -11694.000 -14642.000  25.2%   119   85s
   183   185 -13870.500   92 3278 -11694.000 -14642.000  25.2%   116   90s
   201   203 -13801.500  101 3282 -11694.000 -14642.000  25.2%   115   95s
   225   227 -13697.500  113 3339 -11694.000 -14642.000  25.2%   112  100s
   249   251 -13623.500  125 3386 -11694.000 -14642.000  25.2%   108  105s
   274   276 -13536.500  137 3400 -11694.000 -14642.000  25.2%   105  110s
   297   299 -13447.500  149 3431 -11694.000 -14642.000  25.2%   101  115s
   324   326 -13356.500  162 3433 -11694.000 -14642.000  25.2%  98.2  120s
   349   351 -13268.000  175 3469 -11694.000 -14642.000  25.2%  96.8  125s
   376   378 -13183.000  188 3484 -11694.000 -14642.000  25.2%  94.7  130s
   404   406 -13081.000  202 3525 -11694.000 -14642.000  25.2%  91.9  135s
   424   426 -12998.333  212 3577 -11694.000 -14642.000  25.2%  91.7  140s
   448   450 -12914.333  224 3604 -11694.000 -14642.000  25.2%  90.4  145s
   472   474 -12836.333  236 3631 -11694.000 -14642.000  25.2%  88.6  150s
   490   492 -12781.333  245 3635 -11694.000 -14642.000  25.2%  88.0  155s
   515   517 -12709.333  258 3660 -11694.000 -14642.000  25.2%  86.5  160s
   540   542 -12640.333  270 3670 -11694.000 -14642.000  25.2%  85.0  165s
   564   566 -12569.000  282 3674 -11694.000 -14642.000  25.2%  83.7  170s
   590   592 -12519.000  295 3633 -11694.000 -14642.000  25.2%  82.1  175s
   606   608 -12469.000  303 3651 -11694.000 -14642.000  25.2%  81.8  186s
   623   625 -12417.000  312 3649 -11694.000 -14642.000  25.2%  81.2  190s
   648   650 -12348.000  325 3657 -11694.000 -14642.000  25.2%  80.4  195s
   674   676 -12280.000  338 3616 -11694.000 -14642.000  25.2%  79.6  200s
   700   702 -12206.500  351 3629 -11694.000 -14642.000  25.2%  78.8  205s
   725   727 -12157.500  363 3586 -11694.000 -14642.000  25.2%  78.1  210s
   751   753 -12103.500  376 3571 -11694.000 -14642.000  25.2%  77.2  215s
   778   780 -12048.500  390 3585 -11694.000 -14642.000  25.2%  76.0  220s
   783   785 -12027.500  393 3595 -11694.000 -14642.000  25.2%  75.8  237s
   800   802 -11986.500  401 3597 -11694.000 -14642.000  25.2%  75.2  240s
   825   827 -11920.000  414 3551 -11694.000 -14642.000  25.2%  74.4  245s
   849   851 -11877.000  427 3542 -11694.000 -14642.000  25.2%  73.2  250s
   864   866 -11852.000  435 3538 -11694.000 -14642.000  25.2%  72.4  268s
   876   878 -11826.000  441 3530 -11694.000 -14642.000  25.2%  71.9  270s
   908   910 -11763.000  460 3490 -11694.000 -14642.000  25.2%  70.8  275s
   945   947 -11712.000  479 3431 -11694.000 -14642.000  25.2%  69.3  280s
   971   953 -11832.000  441 4344 -11694.000 -14642.000  25.2%  68.2  314s
   973   954 -12920.333  224 1939 -11694.000 -14642.000  25.2%  68.0  329s
   974   955 -11730.000  470 2503 -11694.000 -14642.000  25.2%  68.0  333s
   975   956 -12796.333  243 3056 -11694.000 -14147.167  21.0%  67.9  356s
   976   956 -12468.000  305 3271 -11694.000 -14010.506  19.8%  67.8  379s
   977   957 -12612.667  275 3326 -11694.000 -13986.393  19.6%  67.8  386s
   978   958 -12101.500  377 3375 -11694.000 -13978.117  19.5%  67.7  390s
   982   960 -13976.567    4 3397 -11694.000 -13976.567  19.5%  67.4  400s
   983   961 -12460.000  306 4043 -11694.000 -13681.219  17.0%  67.3  544s
   984   962 -12031.500  393 4164 -11694.000 -13629.440  16.6%  67.3  661s
   985   962 -12826.333  238 4173 -11694.000 -13619.392  16.5%  67.2  699s
   986   963 -12236.000  346 4333 -11694.000 -13614.549  16.4%  67.1  728s
   987   964 -12854.333  234 4338 -11694.000 -13612.585  16.4%  67.1  743s
   988   964 -13042.000  208 4398 -11694.000 -13612.117  16.4%  67.0  749s
   989   965 -13611.843  109 4454 -11694.000 -13611.843  16.4%  66.9  753s
   990   966 -12527.000  291 4473 -11694.000 -13611.748  16.4%  66.9  757s
   992   967 -12367.000  322 4477 -11694.000 -13611.726  16.4%  66.7  768s
   993   968 -11812.000  446 4802 -11694.000 -13392.709  14.5%  66.7 1269s
   994   968 -13352.754  101 5129 -11694.000 -13352.754  14.2%  66.6 1574s
   995   969 -11760.000  461 5297 -11694.000 -13343.358  14.1%  66.5 1739s
   996   970 -13338.555  132 5403 -11694.000 -13338.555  14.1%  66.5 1806s
   997   970 -12491.000  301 5447 -11694.000 -13337.296  14.1%  66.4 1838s
   998   971 -12816.333  240 5518 -11694.000 -13336.723  14.0%  66.3 1861s
   999   972 -13336.330  110 5506 -11694.000 -13336.330  14.0%  66.3 1875s
  1000   972 -11876.000  426 5542 -11694.000 -13336.214  14.0%  66.2 1883s
  1001   973 -13336.170   18 5554 -11694.000 -13336.170  14.0%  66.1 1888s
  1002   974 -13336.155   41 5560 -11694.000 -13336.155  14.0%  66.1 1890s
  1004   975 -13336.107   25 5568 -11694.000 -13336.107  14.0%  65.9 1898s
  1005   976 -12816.000  240 5581 -11694.000 -13336.106  14.0%  65.9 1914s
  1006   976 -12694.333  262 5917 -11694.000 -13185.848  12.8%  65.8 2720s
  1007   977 -12648.333  270 6258 -11694.000 -13152.407  12.5%  65.7 3255s
  1008   978 -11855.500  435 6353 -11694.000 -13146.406  12.4%  65.7 3410s
  1009   978 -12607.000  277 6428 -11694.000 -13143.193  12.4%  65.6 3515s
  1010   979 -12169.500  361 6476 -11694.000 -13142.468  12.4%  65.5 3559s
  1011   980 -13141.970   27 6469 -11694.000 -13141.970  12.4%  65.5 3594s
  1012   980 -13141.768   12 6512 -11694.000 -13141.768  12.4%  65.4 3616s
  1013   981 -13141.677  181 6524 -11694.000 -13141.677  12.4%  65.4 3630s
  1014   982 -13119.000  198 6540 -11694.000 -13141.650  12.4%  65.3 3638s
  1015   982 -13141.637  175 6581 -11694.000 -13141.637  12.4%  65.2 3643s
  1016   983 -11981.500  403 6585 -11694.000 -13141.628  12.4%  65.2 3648s
  1017   984 -13141.622   25 6579 -11694.000 -13141.622  12.4%  65.1 3653s
  1018   984 -13141.620   40 6571 -11694.000 -13141.620  12.4%  65.0 3675s

Cutting planes:
  Gomory: 73
  MIR: 291
  Flow cover: 2141
  Zero half: 1704
  RLT: 363
  BQP: 449

Explored 1018 nodes (408455 simplex iterations) in 4096.02 seconds (334.56 work units)
Thread count was 1 (of 72 available processors)

Solution count 4: -11694 -11664 -3244 0 

Time limit reached
Best objective -1.169400000000e+04, best bound -1.314000000000e+04, gap 12.3653%

User-callback calls 32218, time in user-callback 3.71 sec

BQP_SOLUTION, 1940, 8688, -4232.000000, 4096.023533, 1, -1, 1, -1, 1, -1, 1, 1, -1, 1, 1, -1, 1, 1, 1, 1, -1, 1, 1, 1, -1, 1, 1, -1, -1, 1, 1, 1, -1, 1, 1, -1, 1, -1, 1, 1, 1, -1, -1, 1, -1, -1, 1, -1, -1, -1, 1, -1, 1, -1, -1, 1, 1, 1, -1, 1, -1, 1, -1, -1, 1, 1, 1, 1, -1, -1, 1, -1, -1, 1, -1, 1, 1, -1, -1, -1, -1, 1, -1, 1, 1, 1, 1, -1, 1, -1, 1, 1, -1, 1, 1, 1, -1, -1, 1, -1, -1, -1, 1, 1, -1, -1, -1, -1, 1, -1, -1, 1, 1, -1, -1, 1, -1, 1, -1, 1, 1, 1, 1, -1, 1, -1, 1, -1, 1, 1, 1, -1, -1, 1, 1, 1, -1, 1, 1, 1, -1, -1, 1, 1, 1, -1, -1, 1, 1, -1, -1, 1, -1, 1, -1, -1, 1, 1, -1, 1, 1, 1, -1, -1, -1, 1, -1, -1, 1, -1, -1, 1, -1, 1, 1, 1, -1, -1, -1, 1, -1, -1, 1, 1, -1, 1, -1, -1, 1, 1, 1, -1, 1, -1, 1, -1, -1, -1, 1, -1, 1, 1, -1, -1, 1, -1, 1, -1, -1, 1, -1, -1, 1, -1, 1, -1, 1, -1, 1, 1, -1, -1, 1, -1, -1, -1, 1, -1, 1, -1, -1, -1, 1, 1, -1, 1, 1, -1, -1, -1, -1, -1, 1, -1, -1, 1, 1, -1, 1, -1, -1, 1, -1, 1, 1, -1, -1, 1, -1, -1, 1, 1, 1, 1, -1, 1, -1, -1, -1, 1, -1, 1, 1, 1, -1, -1, -1, -1, 1, 1, -1, 1, 1, -1, -1, -1, -1, 1, -1, 1, 1, 1, 1, -1, -1, -1, 1, -1, 1, 1, 1, -1, -1, -1, 1, 1, -1, 1, -1, -1, 1, -1, -1, -1, 1, -1, 1, 1, 1, -1, -1, -1, 1, 1, -1, 1, -1, -1, 1, -1, -1, 1, -1, 1, -1, 1, -1, -1, 1, -1, 1, 1, -1, 1, 1, 1, -1, 1, -1, 1, 1, -1, 1, -1, 1, 1, 1, 1, -1, 1, -1, -1, 1, 1, 1, 1, -1, -1, -1, -1, 1, 1, 1, 1, 1, -1, -1, 1, 1, -1, 1, 1, 1, 1, -1, 1, 1, 1, 1, 1, 1, 1, 1, 1, -1, 1, 1, 1, 1, 1, -1, 1, 1, -1, 1, 1, -1, 1, 1, 1, 1, 1, -1, -1, 1, -1, 1, 1, -1, 1, 1, -1, -1, 1, -1, 1, 1, 1, 1, 1, -1, -1, 1, 1, -1, 1, 1, 1, -1, -1, 1, 1, -1, 1, 1, 1, 1, 1, 1, -1, 1, -1, 1, 1, 1, 1, -1, 1, 1, 1, -1, -1, 1, 1, 1, -1, -1, 1, 1, -1, 1, -1, 1, 1, 1, -1, 1, 1, -1, 1, 1, 1, 1, 1, -1, 1, 1, -1, -1, -1, 1, 1, -1, -1, 1, -1, 1, -1, -1, 1, -1, 1, -1, 1, 1, -1, -1, -1, 1, 1, 1, -1, 1, 1, -1, -1, 1, -1, -1, 1, -1, -1, 1, 1, -1, -1, -1, 1, -1, 1, 1, 1, -1, 1, -1, -1, 1, -1, -1, 1, 1, -1, 1, -1, -1, -1, -1, 1, 1, -1, 1, -1, -1, 1, 1, -1, -1, 1, 1, -1, -1, -1, 1, -1, -1, -1, 1, 1, -1, -1, 1, -1, 1, -1, 1, 1, -1, 1, -1, -1, 1, -1, -1, -1, 1, 1, -1, -1, -1, -1, -1, -1, -1, 1, 1, -1, -1, -1, -1, -1, -1, -1, 1, -1, -1, -1, -1, -1, -1, -1, -1, 1, -1, 1, -1, -1, -1, -1, -1, -1, 1, 1, -1, -1, -1, -1, -1, -1, -1, 1, 1, -1, -1, -1, -1, -1, 1, -1, 1, 1, 1, -1, -1, 1, -1, -1, -1, 1, 1, -1, -1, -1, -1, -1, -1, 1, 1, 1, -1, -1, -1, -1, -1, 1, 1, 1, -1, -1, -1, -1, 1, -1, -1, 1, -1, -1, -1, -1, 1, -1, -1, -1, 1, 1, 1, -1, -1, 1, -1, 1, -1, -1, 1, -1, -1, -1, 1, -1, -1, 1, 1, 1, 1, -1, 1, 1, -1, 1, -1, -1, 1, -1, 1, 1, 1, -1, -1, 1, 1, 1, 1, -1, 1, 1, 1, -1, -1, 1, -1, -1, -1, 1, 1, 1, -1, -1, -1, 1, 1, 1, -1, 1, 1, 1, -1, -1, 1, 1, -1, 1, -1, 1, -1, -1, 1, 1, 1, -1, 1, 1, 1, -1, 1, -1, 1, -1, 1, 1, 1, -1, 1, 1, 1, 1, 1, -1, 1, 1, -1, 1, 1, 1, -1, 1, 1, 1, -1, -1, 1, 1, 1, -1, -1, 1, 1, -1, -1, 1, 1, 1, 1, -1, 1, 1, 1, 1, 1, -1, 1, -1, 1, 1, 1, -1, -1, 1, 1, 1, -1, -1, 1, 1, 1, -1, 1, 1, 1, -1, -1, 1, -1, 1, -1, -1, 1, -1, 1, -1, 1, 1, 1, -1, 1, 1, 1, -1, -1, 1, 1, 1, -1, 1, 1, 1, -1, -1, -1, 1, 1, -1, 1, 1, 1, -1, -1, 1, 1, -1, -1, 1, 1, 1, -1, -1, -1, 1, -1, -1, 1, 1, -1, -1, -1, 1, -1, -1, 1, 1, 1, -1, 1, -1, -1, -1, -1, -1, 1, -1, 1, -1, -1, -1, 1, -1, -1, -1, 1, 1, -1, -1, -1, 1, -1, -1, -1, 1, 1, -1, -1, -1, -1, -1, 1, -1, 1, 1, -1, 1, -1, -1, -1, -1, -1, 1, 1, -1, -1, -1, 1, 1, -1, 1, -1, 1, -1, -1, -1, -1, -1, -1, -1, 1, 1, -1, -1, -1, -1, -1, 1, -1, 1, 1, -1, -1, 1, 1, -1, -1, 1, -1, 1, -1, 1, -1, 1, 1, 1, -1, 1, 1, -1, -1, -1, -1, 1, 1, -1, 1, 1, -1, -1, 1, -1, 1, 1, -1, 1, 1, -1, -1, 1, -1, 1, -1, -1, 1, 1, -1, -1, -1, -1, 1, -1, -1, 1, -1, -1, 1, -1, 1, 1, -1, 1, 1, -1, -1, 1, 1, 1, 1, -1, 1, 1, -1, -1, 1, 1, -1, 1, -1, 1, 1, -1, -1, 1, 1, -1, 1, 1, 1, 1, -1, -1, 1, 1, -1, 1, -1, -1, 1, 1, -1, -1, -1, -1, 1, 1, -1, -1, 1, -1, 1, -1, -1, 1, -1, -1, 1, 1, -1, 1, 1, 1, -1, -1, 1, 1, -1, -1, 1, 1, 1, 1, -1, 1, -1, -1, 1, 1, 1, 1, -1, -1, -1, 1, -1, 1, 1, 1, -1, -1, -1, 1, 1, 1, 1, 1, 1, 1, 1, -1, -1, 1, -1, 1, 1, -1, 1, 1, 1, -1, 1, 1, 1, 1, 1, 1, 1, -1, -1, 1, -1, 1, 1, 1, 1, 1, -1, -1, 1, 1, 1, 1, 1, 1, 1, 1, -1, -1, 1, 1, 1, 1, 1, -1, 1, -1, 1, 1, 1, 1, 1, 1, 1, 1, -1, -1, 1, -1, 1, 1, 1, 1, -1, -1, 1, 1, 1, 1, 1, 1, 1, -1, 1, 1, 1, 1, 1, 1, -1, 1, -1, 1, 1, -1, 1, -1, 1, 1, 1, -1, 1, 1, 1, 1, -1, 1, -1, 1, -1, 1, 1, 1, 1, 1, -1, 1, -1, 1, 1, -1, 1, -1, 1, 1, 1, -1, -1, 1, 1, -1, 1, 1, 1, 1, -1, -1, 1, 1, 1, -1, 1, 1, 1, -1, 1, 1, 1, -1, 1, 1, 1, 1, 1, -1, 1, 1, 1, -1, 1, 1, 1, 1, 1, 1, 1, 1, 1, -1, 1, 1, 1, -1, 1, 1, -1, 1, -1, 1, 1, 1, -1, 1, 1, -1, 1, 1, 1, 1, -1, 1, 1, 1, -1, 1, 1, 1, -1, -1, 1, 1, 1, 1, 1, -1, 1, 1, -1, 1, 1, 1, -1, -1, -1, 1, 1, -1, 1, -1, 1, -1, 1, -1, -1, 1, -1, 1, 1, 1, -1, 1, 1, 1, 1, 1, 1, 1, -1, -1, 1, -1, 1, 1, 1, 1, 1, 1, -1, 1, -1, -1, 1, 1, 1, 1, 1, -1, -1, -1, 1, -1, 1, -1, 1, 1, -1, -1, 1, -1, 1, -1, 1, 1, 1, -1, 1, 1, 1, -1, 1, 1, 1, 1, -1, -1, 1, -1, 1, -1, 1, 1, 1, 1, -1, -1, 1, 1, 1, 1, -1, 1, -1, 1, 1, -1, 1, 1, 1, 1, -1, -1, -1, 1, -1, 1, -1, 1, 1, -1, -1, -1, 1, -1, -1, 1, 1, 1, 1, -1, 1, 1, 1, -1, 1, -1, 1, 1, -1, 1, 1, -1, 1, 1, 1, 1, -1, -1, 1, 1, -1, -1, 1, 1, -1, -1, -1, -1, 1, -1, -1, 1, -1, -1, 1, -1, -1, -1, -1, -1, -1, 1, 1, -1, 1, -1, 1, 1, -1, 1, 1, 1, -1, -1, -1, -1, -1, 1, -1, 1, -1, -1, -1, -1, 1, 1, -1, 1, 1, -1, -1, 1, -1, -1, -1, -1, 1, -1, -1, 1, -1, 1, 1, -1, 1, -1, -1, -1, -1, -1, -1, 1, 1, -1, 1, -1, -1, -1, -1, -1, -1, -1, -1, -1, -1, -1, -1, -1, 1, 1, -1, 1, 1, -1, -1, -1, 1, -1, 1, -1, 1, 1, -1, -1, -1, -1, -1, 1, -1, 1, -1, -1, -1, -1, 1, 1, 1, 1, 1, -1, 1, -1, 1, -1, 1, 1, -1, 1, -1, -1, -1, 1, -1, -1, 1, -1, 1, -1, -1, -1, -1, -1, -1, -1, 1, 1, -1, 1, -1, -1, -1, 1, -1, 1, -1, -1, -1, -1, -1, -1, 1, -1, 1, -1, -1, 1, 1, -1, 1, 1, -1, 1, 1, -1, -1, 1, -1, 1, 1, 1, 1, -1, -1, -1, 1, 1, 1, 1, 1, 1, 1, -1, 1, -1, 1, 1, 1, 1, 1, 1, -1, -1, 1, -1, 1, 1, 1, 1, -1, 1, 1, -1, 1, 1, 1, -1, -1, 1, -1, -1, 1, 1, 1, 1, 1, 1, -1, -1, -1, 1, 1, 1, 1, -1, 1, -1, 1, -1, 1, -1, 1, 1, -1, 1, -1, 1, -1, 1, -1, 1, 1, -1, 1, -1, 1, -1, 1, -1, 1, 1, 1, 1, -1, -1, -1, 1, 1, 1, 1, 1, -1, -1, 1, 1, 1, -1, 1, 1, 1, -1, -1, -1, 1, -1, 1, 1, -1, -1, -1, -1, 1, 1, 1, -1, 1, 1, 1, -1, -1, 1, 1, 1, -1, 1, 1, -1, 1, -1, 1, 1, 1, 1, 1, 1, 1, -1, -1, 1, 1, 1, -1, 1, 1, 1, -1, -1, 1, -1, 1, -1, 1, 1, -1, 1, -1, -1, 1, 1, 1, 1, 1, -1, 1, 1, -1, 1, 1, 1, -1, 1, -1, -1, -1, -1, 1, 1, 1, 1, 1, -1, -1, -1, 1, 1, 1, 1, -1, 1, 1, -1, 1, -1, 1, 1, 1, -1, 1, -1, -1, 1, 1, 1, 1, -1, 1, 1, -1, -1, 1, -1, 1, 1, -1, 1, 1, -1, -1, -1, 1, 1, 1, -1, 1, 1, -1, -1, -1, -1, 1, 1, -1, -1, 1, -1, -1, 1, -1, 1, 1, 1, -1, 1, -1, -1, -1, 1, 1, 1, -1, -1, 1, -1, 1, -1, -1, -1, 1, 1, -1, 1, -1, -1, -1, -1, 1, 1, -1, 1, 1, -1, -1, 1, 1, -1, 1, 1, -1, 1, 1, -1, -1, -1, -1, 1, 1, -1, 1, -1, -1, 1, 1, 1, 1, 1, 1, -1, -1, 1, 1, -1, -1, 1, 1, -1, 1
BQP_DATA, 1940, 8688, -4232.000000, -5678.000000, -11694.000000, -13140.000000, 4096.023533, 4209, 1018
